(set-logic QF_NRA)
(set-info :source |Benchmarks generated from hycomp (https://es-static.fbk.eu/tools/hycomp/). BMC instances of non-linear hybrid automata taken from: Alessandro Cimatti, Sergio Mover, Stefano Tonetta, A quantifier-free SMT encoding of non-linear hybrid automata, FMCAD 2012 and Alessandro Cimatti, Sergio Mover, Stefano Tonetta, Quantier-free encoding of invariants for Hybrid Systems, Formal Methods in System Design. This instance solves a BMC problem of depth 1 and uses the quantifier free encoding with lemmas encoding. Contacts: Sergio Mover (mover@fbk.eu), Stefano Tonetta (tonettas@fbk.eu), Alessandro Cimatti (cimatti@fbk.eu).|)
(set-info :smt-lib-version 2.0)
(set-info :category "industrial")
(set-info :status unsat)
;; MathSAT API call trace
;; generated on Mon Mar 19 10:50:39 2012
(declare-fun b.event_is_timed__AT1 () Bool)
(declare-fun speed_loss__AT0 () Real)
(declare-fun b.counter.1__AT1 () Bool)
(declare-fun b.counter.2__AT1 () Bool)
(declare-fun b.counter.2__AT0 () Bool)
(declare-fun b.time__AT0 () Real)
(declare-fun b.speed_y__AT0 () Real)
(declare-fun b.EVENT.1__AT0 () Bool)
(declare-fun b.time__AT1 () Real)
(declare-fun b.y__AT1 () Real)
(declare-fun b.counter.0__AT1 () Bool)
(declare-fun b.delta__AT0 () Real)
(declare-fun b.counter.3__AT1 () Bool)
(declare-fun b.y__AT0 () Real)
(declare-fun b.event_is_timed__AT0 () Bool)
(declare-fun b.counter.0__AT0 () Bool)
(declare-fun b.counter.1__AT0 () Bool)
(declare-fun b.counter.3__AT0 () Bool)
(declare-fun b.delta__AT1 () Real)
(declare-fun b.EVENT.0__AT1 () Bool)
(declare-fun b.EVENT.1__AT1 () Bool)
(declare-fun b.EVENT.0__AT0 () Bool)
(declare-fun b.speed_y__AT1 () Real)
(assert (let ((.def_285 (<= b.speed_y__AT1 0.0 )))
(let ((.def_267 (* (- 49.0) b.delta__AT1)))
(let ((.def_268 (* 5.0 b.speed_y__AT1)))
(let ((.def_270 (+ .def_268 .def_267)))
(let ((.def_283 (<= .def_270 0.0 )))
(let ((.def_302 (and .def_283 .def_285)))
(let ((.def_271 (<= 0.0 .def_270)))
(let ((.def_272 (not .def_271)))
(let ((.def_265 (<= 0.0 b.speed_y__AT1)))
(let ((.def_299 (or .def_265 .def_272)))
(let ((.def_286 (not .def_285)))
(let ((.def_298 (or .def_283 .def_286)))
(let ((.def_300 (and .def_298 .def_299)))
(let ((.def_303 (and .def_300 .def_302)))
(let ((.def_297 (and .def_265 .def_271)))
(let ((.def_301 (and .def_297 .def_300)))
(let ((.def_304 (or .def_301 .def_303)))
(let ((.def_257 (* b.speed_y__AT1 b.delta__AT1)))
(let ((.def_258 (* 10.0 .def_257)))
(let ((.def_255 (* b.delta__AT1 b.delta__AT1)))
(let ((.def_256 (* (- 49.0) .def_255)))
(let ((.def_259 (+ .def_256 .def_258)))
(let ((.def_260 (* 10.0 b.y__AT1)))
(let ((.def_262 (+ .def_260 .def_259)))
(let ((.def_277 (<= .def_262 0.0 )))
(let ((.def_291 (not .def_277)))
(let ((.def_275 (<= b.y__AT1 0.0 )))
(let ((.def_292 (or .def_275 .def_291)))
(let ((.def_248 (<= 0.0 b.y__AT1)))
(let ((.def_289 (not .def_248)))
(let ((.def_263 (<= 0.0 .def_262)))
(let ((.def_290 (or .def_263 .def_289)))
(let ((.def_293 (and .def_290 .def_292)))
(let ((.def_284 (not .def_283)))
(let ((.def_287 (or .def_284 .def_286)))
(let ((.def_288 (not .def_287)))
(let ((.def_294 (or .def_288 .def_293)))
(let ((.def_279 (not .def_263)))
(let ((.def_280 (or .def_248 .def_279)))
(let ((.def_276 (not .def_275)))
(let ((.def_278 (or .def_276 .def_277)))
(let ((.def_281 (and .def_278 .def_280)))
(let ((.def_266 (not .def_265)))
(let ((.def_273 (or .def_266 .def_272)))
(let ((.def_274 (not .def_273)))
(let ((.def_282 (or .def_274 .def_281)))
(let ((.def_295 (and .def_282 .def_294)))
(let ((.def_264 (and .def_248 .def_263)))
(let ((.def_296 (and .def_264 .def_295)))
(let ((.def_305 (and .def_296 .def_304)))
(let ((.def_56 (<= speed_loss__AT0 (/ 1 2))))
(let ((.def_53 (<= (/ 1 10) speed_loss__AT0)))
(let ((.def_57 (and .def_53 .def_56)))
(let ((.def_306 (and .def_57 .def_305)))
(let ((.def_249 (and .def_57 .def_248)))
(let ((.def_245 (not b.EVENT.0__AT1)))
(let ((.def_243 (not b.EVENT.1__AT1)))
(let ((.def_246 (or .def_243 .def_245)))
(let ((.def_6 (not b.counter.0__AT1)))
(let ((.def_4 (not b.counter.1__AT1)))
(let ((.def_236 (or .def_4 .def_6)))
(let ((.def_240 (or b.counter.3__AT1 .def_236)))
(let ((.def_237 (or b.counter.2__AT1 .def_236)))
(let ((.def_9 (not b.counter.2__AT1)))
(let ((.def_235 (or .def_6 .def_9)))
(let ((.def_238 (and .def_235 .def_237)))
(let ((.def_146 (not b.counter.3__AT1)))
(let ((.def_239 (or .def_146 .def_238)))
(let ((.def_241 (and .def_239 .def_240)))
(let ((.def_247 (and .def_241 .def_246)))
(let ((.def_250 (and .def_247 .def_249)))
(let ((.def_230 (<= 0.0 b.delta__AT0)))
(let ((.def_46 (not b.EVENT.0__AT0)))
(let ((.def_44 (not b.EVENT.1__AT0)))
(let ((.def_176 (and .def_44 .def_46)))
(let ((.def_180 (not .def_176)))
(let ((.def_231 (or .def_180 .def_230)))
(let ((.def_232 (or b.EVENT.1__AT0 .def_231)))
(let ((.def_168 (= b.counter.0__AT1 b.counter.0__AT0)))
(let ((.def_166 (= b.counter.1__AT1 b.counter.1__AT0)))
(let ((.def_164 (= b.counter.2__AT1 b.counter.2__AT0)))
(let ((.def_163 (= b.counter.3__AT0 b.counter.3__AT1)))
(let ((.def_165 (and .def_163 .def_164)))
(let ((.def_167 (and .def_165 .def_166)))
(let ((.def_169 (and .def_167 .def_168)))
(let ((.def_227 (or .def_169 .def_180)))
(let ((.def_228 (or b.EVENT.1__AT0 .def_227)))
(let ((.def_216 (* (- 10.0) b.y__AT1)))
(let ((.def_67 (* b.speed_y__AT0 b.delta__AT0)))
(let ((.def_68 (* 10.0 .def_67)))
(let ((.def_219 (+ .def_68 .def_216)))
(let ((.def_63 (* b.delta__AT0 b.delta__AT0)))
(let ((.def_66 (* (- 49.0) .def_63)))
(let ((.def_220 (+ .def_66 .def_219)))
(let ((.def_70 (* 10.0 b.y__AT0)))
(let ((.def_221 (+ .def_70 .def_220)))
(let ((.def_222 (= .def_221 0.0 )))
(let ((.def_211 (* (- 5.0) b.speed_y__AT1)))
(let ((.def_77 (* (- 49.0) b.delta__AT0)))
(let ((.def_212 (+ .def_77 .def_211)))
(let ((.def_79 (* 5.0 b.speed_y__AT0)))
(let ((.def_213 (+ .def_79 .def_212)))
(let ((.def_214 (= .def_213 0.0 )))
(let ((.def_223 (and .def_214 .def_222)))
(let ((.def_224 (or .def_180 .def_223)))
(let ((.def_174 (= b.y__AT0 b.y__AT1)))
(let ((.def_162 (= b.speed_y__AT0 b.speed_y__AT1)))
(let ((.def_207 (and .def_162 .def_174)))
(let ((.def_204 (= b.delta__AT0 0.0 )))
(let ((.def_205 (and .def_176 .def_204)))
(let ((.def_206 (not .def_205)))
(let ((.def_208 (or .def_206 .def_207)))
(let ((.def_209 (or b.EVENT.1__AT0 .def_208)))
(let ((.def_225 (and .def_209 .def_224)))
(let ((.def_186 (= b.time__AT0 b.time__AT1)))
(let ((.def_198 (and .def_174 .def_186)))
(let ((.def_199 (and .def_162 .def_198)))
(let ((.def_200 (and .def_169 .def_199)))
(let ((.def_201 (or .def_44 .def_200)))
(let ((.def_189 (* (- 1.0) b.time__AT1)))
(let ((.def_192 (+ b.delta__AT0 .def_189)))
(let ((.def_193 (+ b.time__AT0 .def_192)))
(let ((.def_194 (= .def_193 0.0 )))
(let ((.def_195 (or .def_180 .def_194)))
(let ((.def_196 (or b.EVENT.1__AT0 .def_195)))
(let ((.def_187 (or .def_176 .def_186)))
(let ((.def_188 (or b.EVENT.1__AT0 .def_187)))
(let ((.def_197 (and .def_188 .def_196)))
(let ((.def_202 (and .def_197 .def_201)))
(let ((.def_182 (= .def_180 b.event_is_timed__AT1)))
(let ((.def_179 (= b.event_is_timed__AT0 .def_176)))
(let ((.def_183 (and .def_179 .def_182)))
(let ((.def_170 (and .def_162 .def_169)))
(let ((.def_119 (= b.y__AT0 0.0 )))
(let ((.def_75 (<= 0.0 b.speed_y__AT0)))
(let ((.def_76 (not .def_75)))
(let ((.def_120 (and .def_76 .def_119)))
(let ((.def_171 (or .def_120 .def_170)))
(let ((.def_137 (or .def_6 b.counter.0__AT0)))
(let ((.def_27 (not b.counter.0__AT0)))
(let ((.def_136 (or b.counter.0__AT1 .def_27)))
(let ((.def_138 (and .def_136 .def_137)))
(let ((.def_139 (and .def_4 .def_138)))
(let ((.def_140 (or b.counter.1__AT0 .def_139)))
(let ((.def_25 (not b.counter.1__AT0)))
(let ((.def_135 (or b.counter.1__AT1 .def_25)))
(let ((.def_141 (and .def_135 .def_140)))
(let ((.def_154 (and .def_9 .def_141)))
(let ((.def_155 (or b.counter.2__AT0 .def_154)))
(let ((.def_149 (and .def_4 .def_27)))
(let ((.def_150 (or b.counter.1__AT0 .def_149)))
(let ((.def_151 (and .def_135 .def_150)))
(let ((.def_152 (and b.counter.2__AT1 .def_151)))
(let ((.def_30 (not b.counter.2__AT0)))
(let ((.def_153 (or .def_30 .def_152)))
(let ((.def_156 (and .def_153 .def_155)))
(let ((.def_157 (and b.counter.3__AT1 .def_156)))
(let ((.def_158 (or b.counter.3__AT0 .def_157)))
(let ((.def_142 (and b.counter.2__AT1 .def_141)))
(let ((.def_143 (or b.counter.2__AT0 .def_142)))
(let ((.def_131 (or b.counter.1__AT1 b.counter.1__AT0)))
(let ((.def_129 (and .def_4 b.counter.0__AT1)))
(let ((.def_130 (or .def_25 .def_129)))
(let ((.def_132 (and .def_130 .def_131)))
(let ((.def_133 (and .def_9 .def_132)))
(let ((.def_134 (or .def_30 .def_133)))
(let ((.def_144 (and .def_134 .def_143)))
(let ((.def_147 (and .def_144 .def_146)))
(let ((.def_33 (not b.counter.3__AT0)))
(let ((.def_148 (or .def_33 .def_147)))
(let ((.def_159 (and .def_148 .def_158)))
(let ((.def_125 (* (- 1.0) b.speed_y__AT0)))
(let ((.def_123 (* (- 1.0) speed_loss__AT0)))
(let ((.def_124 (+ 1.0 .def_123)))
(let ((.def_126 (* .def_124 .def_125)))
(let ((.def_128 (= .def_126 b.speed_y__AT1)))
(let ((.def_160 (and .def_128 .def_159)))
(let ((.def_121 (not .def_120)))
(let ((.def_161 (or .def_121 .def_160)))
(let ((.def_172 (and .def_161 .def_171)))
(let ((.def_175 (and .def_172 .def_174)))
(let ((.def_177 (or .def_175 .def_176)))
(let ((.def_178 (or b.EVENT.1__AT0 .def_177)))
(let ((.def_184 (and .def_178 .def_183)))
(let ((.def_203 (and .def_184 .def_202)))
(let ((.def_226 (and .def_203 .def_225)))
(let ((.def_229 (and .def_226 .def_228)))
(let ((.def_233 (and .def_229 .def_232)))
(let ((.def_234 (and .def_44 .def_233)))
(let ((.def_251 (and .def_234 .def_250)))
(let ((.def_28 (and .def_25 .def_27)))
(let ((.def_31 (and .def_28 .def_30)))
(let ((.def_252 (and .def_31 .def_251)))
(let ((.def_96 (<= b.speed_y__AT0 0.0 )))
(let ((.def_81 (+ .def_79 .def_77)))
(let ((.def_94 (<= .def_81 0.0 )))
(let ((.def_113 (and .def_94 .def_96)))
(let ((.def_82 (<= 0.0 .def_81)))
(let ((.def_83 (not .def_82)))
(let ((.def_110 (or .def_75 .def_83)))
(let ((.def_97 (not .def_96)))
(let ((.def_109 (or .def_94 .def_97)))
(let ((.def_111 (and .def_109 .def_110)))
(let ((.def_114 (and .def_111 .def_113)))
(let ((.def_108 (and .def_75 .def_82)))
(let ((.def_112 (and .def_108 .def_111)))
(let ((.def_115 (or .def_112 .def_114)))
(let ((.def_69 (+ .def_66 .def_68)))
(let ((.def_72 (+ .def_70 .def_69)))
(let ((.def_88 (<= .def_72 0.0 )))
(let ((.def_102 (not .def_88)))
(let ((.def_86 (<= b.y__AT0 0.0 )))
(let ((.def_103 (or .def_86 .def_102)))
(let ((.def_49 (<= 0.0 b.y__AT0)))
(let ((.def_100 (not .def_49)))
(let ((.def_73 (<= 0.0 .def_72)))
(let ((.def_101 (or .def_73 .def_100)))
(let ((.def_104 (and .def_101 .def_103)))
(let ((.def_95 (not .def_94)))
(let ((.def_98 (or .def_95 .def_97)))
(let ((.def_99 (not .def_98)))
(let ((.def_105 (or .def_99 .def_104)))
(let ((.def_90 (not .def_73)))
(let ((.def_91 (or .def_49 .def_90)))
(let ((.def_87 (not .def_86)))
(let ((.def_89 (or .def_87 .def_88)))
(let ((.def_92 (and .def_89 .def_91)))
(let ((.def_84 (or .def_76 .def_83)))
(let ((.def_85 (not .def_84)))
(let ((.def_93 (or .def_85 .def_92)))
(let ((.def_106 (and .def_93 .def_105)))
(let ((.def_74 (and .def_49 .def_73)))
(let ((.def_107 (and .def_74 .def_106)))
(let ((.def_116 (and .def_107 .def_115)))
(let ((.def_117 (and .def_57 .def_116)))
(let ((.def_58 (and .def_49 .def_57)))
(let ((.def_47 (or .def_44 .def_46)))
(let ((.def_37 (or .def_25 .def_27)))
(let ((.def_41 (or b.counter.3__AT0 .def_37)))
(let ((.def_38 (or b.counter.2__AT0 .def_37)))
(let ((.def_36 (or .def_27 .def_30)))
(let ((.def_39 (and .def_36 .def_38)))
(let ((.def_40 (or .def_33 .def_39)))
(let ((.def_42 (and .def_40 .def_41)))
(let ((.def_48 (and .def_42 .def_47)))
(let ((.def_59 (and .def_48 .def_58)))
(let ((.def_34 (and .def_31 .def_33)))
(let ((.def_22 (= b.speed_y__AT0 0.0 )))
(let ((.def_19 (= b.y__AT0 10.0 )))
(let ((.def_14 (= b.time__AT0 0.0 )))
(let ((.def_16 (and .def_14 b.event_is_timed__AT0)))
(let ((.def_20 (and .def_16 .def_19)))
(let ((.def_23 (and .def_20 .def_22)))
(let ((.def_35 (and .def_23 .def_34)))
(let ((.def_60 (and .def_35 .def_59)))
(let ((.def_7 (and .def_4 .def_6)))
(let ((.def_10 (and .def_7 .def_9)))
(let ((.def_11 (not .def_10)))
(let ((.def_61 (and .def_11 .def_60)))
(let ((.def_118 (and .def_61 .def_117)))
(let ((.def_253 (and .def_118 .def_252)))
(let ((.def_307 (and .def_253 .def_306)))
.def_307)))))))))))))))))))))))))))))))))))))))))))))))))))))))))))))))))))))))))))))))))))))))))))))))))))))))))))))))))))))))))))))))))))))))))))))))))))))))))))))))))))))))))))))))))))))))))))))))))))))))))))))))))))))))))))))))))))))))))))))))))))))))))))))))))))))))
(check-sat)
(exit)
